21810
1 0 1 1 1 0 0 0 1 1 0 0 1 1 1 0 0 1 1 1 1 1 1 1 1 1 0 1 1 0 
18 19 21 27 2 12 21 27 22 28 4 28 13 13 28 18 3 20 22 0 18 21 23 24 23 18 27 19 4 2 19 19 4 21 27 12 20 8 24 21 18 9 12 4 8 19 13 21 19 14 24 24 24 21 8 12 25 9 18 25 4 0 18 8 13 25 23 14 28 25 18 12 19 9 23 23 20 23 8 24 23 0 9 25 4 13 19 2 27 25 28 19 25 25 2 3 28 12 0 28 28 21 25 18 4 0 4 24 22 3 19 4 27 12 12 8 28 25 17 8 9 25 17 19 9 21 2 12 19 17 28 24 25 20 23 9 3 3 28 14 12 22 12 25 25 2 24 21 27 25 24 17 23 0 8 28 2 21 3 13 13 27 23 24 23 27 23 4 3 21 13 20 19 14 4 2 0 20 4 20 2 21 2 19 12 8 28 23 0 21 2 21 19 4 25 12 25 21 20 19 

Total Run Time: 342120 ms.
